Route #1: 26 58 38 10 31 39
Route #2: 9 25 55 18 50 32
Route #3: 33 1 43 41 42 64 22
Route #4: 16 63 23 56 49 24 3 44
Route #5: 6 51 17 40 12
Route #6: 11 59 14 53 7
Route #7: 35 19 54 13 57 15 20 60 37
Route #8: 28 61 21 36 47 30
Route #9: 2 62 48 5 29 45
Route #10: 34 46 8 52 27 4
Cost 830